p cnf 494 1886
23 -32 36 0
-14 43 -23 0
-15 38 -9 0
-24 37 -50 0
-47 -22 -40 0
-8 21 28 0
26 30 -27 0
3 48 -1 0
-7 2 47 0
-22 -40 -3 0
-49 -30 23 0
-31 -20 25 0
-47 -26 4 0
-37 36 -15 0
-2 44 30 0
-34 42 -4 0
18 -48 -4 0
-36 35 19 0
-3 7 17 0
43 37 -22 0
-12 30 -19 0
9 -46 -19 0
-32 31 -34 0
44 -10 34 0
-34 43 36 0
-44 23 -29 0
10 32 31 0
37 -34 -33 0
-9 -21 20 0
-11 25 16 0
34 -36 -4 0
27 -22 13 0
-47 -36 26 0
17 10 -2 0
-8 39 30 0
-45 1 11 0
-48 -7 17 0
-17 -40 -18 0
28 47 17 0
22 18 -3 0
37 44 8 0
-19 -12 44 0
-4 -35 26 0
46 45 -10 0
31 -1 -6 0
-31 2 43 0
27 -46 4 0
-29 -31 14 0
37 -22 34 0
-46 -16 -15 0
-1 4 51 0
1 4 -51 0
-1 -4 -51 0
1 -4 51 0
-6 -7 52 0
6 -7 -52 0
-6 7 -52 0
6 7 52 0
9 12 53 0
-9 12 -53 0
9 -12 -53 0
-9 -12 53 0
15 16 54 0
-15 16 -54 0
15 -16 -54 0
-15 -16 54 0
-17 -20 55 0
17 -20 -55 0
-17 20 -55 0
17 20 55 0
23 27 56 0
-23 27 -56 0
23 -27 -56 0
-23 -27 56 0
28 31 57 0
-28 31 -57 0
28 -31 -57 0
-28 -31 57 0
-32 -35 58 0
32 -35 -58 0
-32 35 -58 0
32 35 58 0
-37 39 59 0
37 39 -59 0
-37 -39 -59 0
37 -39 59 0
43 44 60 0
-43 44 -60 0
43 -44 -60 0
-43 -44 60 0
45 46 61 0
-45 46 -61 0
45 -46 -61 0
-45 -46 61 0
-47 -50 62 0
47 -50 -62 0
-47 50 -62 0
47 50 62 0
51 -52 63 0
-51 -52 -63 0
51 52 -63 0
-51 52 63 0
53 -54 64 0
-53 -54 -64 0
53 54 -64 0
-53 54 64 0
55 -56 65 0
-55 -56 -65 0
55 56 -65 0
-55 56 65 0
57 -58 66 0
-57 -58 -66 0
57 58 -66 0
-57 58 66 0
59 -60 67 0
-59 -60 -67 0
59 60 -67 0
-59 60 67 0
61 -62 68 0
-61 -62 -68 0
61 62 -68 0
-61 62 68 0
63 -64 69 0
-63 -64 -69 0
63 64 -69 0
-63 64 69 0
65 -66 70 0
-65 -66 -70 0
65 66 -70 0
-65 66 70 0
67 -68 71 0
-67 -68 -71 0
67 68 -71 0
-67 68 71 0
-69 -70 71 0
69 -70 -71 0
-69 70 -71 0
69 70 71 0
1 -2 72 0
-1 -2 -72 0
1 2 -72 0
-1 2 72 0
-3 6 73 0
3 6 -73 0
-3 -6 -73 0
3 -6 73 0
8 -10 74 0
-8 -10 -74 0
8 10 -74 0
-8 10 74 0
-12 -13 75 0
12 -13 -75 0
-12 13 -75 0
12 13 75 0
-16 -17 76 0
16 -17 -76 0
-16 17 -76 0
16 17 76 0
19 20 77 0
-19 20 -77 0
19 -20 -77 0
-19 -20 77 0
21 24 78 0
-21 24 -78 0
21 -24 -78 0
-21 -24 78 0
27 28 79 0
-27 28 -79 0
27 -28 -79 0
-27 -28 79 0
-29 -34 80 0
29 -34 -80 0
-29 34 -80 0
29 34 80 0
-35 39 81 0
35 39 -81 0
-35 -39 -81 0
35 -39 81 0
41 -42 82 0
-41 -42 -82 0
41 42 -82 0
-41 42 82 0
43 44 83 0
-43 44 -83 0
43 -44 -83 0
-43 -44 83 0
-48 -49 84 0
48 -49 -84 0
-48 49 -84 0
48 49 84 0
71 -72 85 0
-71 -72 -85 0
71 72 -85 0
-71 72 85 0
73 -74 86 0
-73 -74 -86 0
73 74 -86 0
-73 74 86 0
75 -76 87 0
-75 -76 -87 0
75 76 -87 0
-75 76 87 0
77 -78 88 0
-77 -78 -88 0
77 78 -88 0
-77 78 88 0
79 -80 89 0
-79 -80 -89 0
79 80 -89 0
-79 80 89 0
81 -82 90 0
-81 -82 -90 0
81 82 -90 0
-81 82 90 0
83 -84 91 0
-83 -84 -91 0
83 84 -91 0
-83 84 91 0
85 -86 92 0
-85 -86 -92 0
85 86 -92 0
-85 86 92 0
87 -88 93 0
-87 -88 -93 0
87 88 -93 0
-87 88 93 0
89 -90 94 0
-89 -90 -94 0
89 90 -94 0
-89 90 94 0
91 -92 95 0
-91 -92 -95 0
91 92 -95 0
-91 92 95 0
93 -94 96 0
-93 -94 -96 0
93 94 -96 0
-93 94 96 0
95 96 0
-95 -96 0
-1 -2 97 0
1 -2 -97 0
-1 2 -97 0
1 2 97 0
3 -4 98 0
-3 -4 -98 0
3 4 -98 0
-3 4 98 0
-5 6 99 0
5 6 -99 0
-5 -6 -99 0
5 -6 99 0
-7 8 100 0
7 8 -100 0
-7 -8 -100 0
7 -8 100 0
10 -11 101 0
-10 -11 -101 0
10 11 -101 0
-10 11 101 0
14 15 102 0
-14 15 -102 0
14 -15 -102 0
-14 -15 102 0
-16 -17 103 0
16 -17 -103 0
-16 17 -103 0
16 17 103 0
-20 24 104 0
20 24 -104 0
-20 -24 -104 0
20 -24 104 0
-25 -26 105 0
25 -26 -105 0
-25 26 -105 0
25 26 105 0
30 -31 106 0
-30 -31 -106 0
30 31 -106 0
-30 31 106 0
32 -33 107 0
-32 -33 -107 0
32 33 -107 0
-32 33 107 0
-36 38 108 0
36 38 -108 0
-36 -38 -108 0
36 -38 108 0
43 46 109 0
-43 46 -109 0
43 -46 -109 0
-43 -46 109 0
-48 50 110 0
48 50 -110 0
-48 -50 -110 0
48 -50 110 0
97 -98 111 0
-97 -98 -111 0
97 98 -111 0
-97 98 111 0
99 -100 112 0
-99 -100 -112 0
99 100 -112 0
-99 100 112 0
101 -102 113 0
-101 -102 -113 0
101 102 -113 0
-101 102 113 0
103 -104 114 0
-103 -104 -114 0
103 104 -114 0
-103 104 114 0
105 -106 115 0
-105 -106 -115 0
105 106 -115 0
-105 106 115 0
107 -108 116 0
-107 -108 -116 0
107 108 -116 0
-107 108 116 0
109 -110 117 0
-109 -110 -117 0
109 110 -117 0
-109 110 117 0
111 -112 118 0
-111 -112 -118 0
111 112 -118 0
-111 112 118 0
113 -114 119 0
-113 -114 -119 0
113 114 -119 0
-113 114 119 0
115 -116 120 0
-115 -116 -120 0
115 116 -120 0
-115 116 120 0
117 -118 121 0
-117 -118 -121 0
117 118 -121 0
-117 118 121 0
119 -120 122 0
-119 -120 -122 0
119 120 -122 0
-119 120 122 0
121 122 0
-121 -122 0
1 -3 123 0
-1 -3 -123 0
1 3 -123 0
-1 3 123 0
-12 -17 124 0
12 -17 -124 0
-12 17 -124 0
12 17 124 0
18 -22 125 0
-18 -22 -125 0
18 22 -125 0
-18 22 125 0
-24 -26 126 0
24 -26 -126 0
-24 26 -126 0
24 26 126 0
-29 -30 127 0
29 -30 -127 0
-29 30 -127 0
29 30 127 0
-32 -33 128 0
32 -33 -128 0
-32 33 -128 0
32 33 128 0
-34 35 129 0
34 35 -129 0
-34 -35 -129 0
34 -35 129 0
-38 -39 130 0
38 -39 -130 0
-38 39 -130 0
38 39 130 0
40 41 131 0
-40 41 -131 0
40 -41 -131 0
-40 -41 131 0
42 -43 132 0
-42 -43 -132 0
42 43 -132 0
-42 43 132 0
44 -46 133 0
-44 -46 -133 0
44 46 -133 0
-44 46 133 0
122 -123 134 0
-122 -123 -134 0
122 123 -134 0
-122 123 134 0
124 -125 135 0
-124 -125 -135 0
124 125 -135 0
-124 125 135 0
126 -127 136 0
-126 -127 -136 0
126 127 -136 0
-126 127 136 0
128 -129 137 0
-128 -129 -137 0
128 129 -137 0
-128 129 137 0
130 -131 138 0
-130 -131 -138 0
130 131 -138 0
-130 131 138 0
132 -133 139 0
-132 -133 -139 0
132 133 -139 0
-132 133 139 0
134 -135 140 0
-134 -135 -140 0
134 135 -140 0
-134 135 140 0
136 -137 141 0
-136 -137 -141 0
136 137 -141 0
-136 137 141 0
138 -139 142 0
-138 -139 -142 0
138 139 -142 0
-138 139 142 0
-140 -141 142 0
140 -141 -142 0
-140 141 -142 0
140 141 142 0
-4 5 143 0
4 5 -143 0
-4 -5 -143 0
4 -5 143 0
7 -9 144 0
-7 -9 -144 0
7 9 -144 0
-7 9 144 0
11 14 145 0
-11 14 -145 0
11 -14 -145 0
-11 -14 145 0
-19 -22 146 0
19 -22 -146 0
-19 22 -146 0
19 22 146 0
-26 -27 147 0
26 -27 -147 0
-26 27 -147 0
26 27 147 0
-29 -31 148 0
29 -31 -148 0
-29 31 -148 0
29 31 148 0
-34 -37 149 0
34 -37 -149 0
-34 37 -149 0
34 37 149 0
-39 40 150 0
39 40 -150 0
-39 -40 -150 0
39 -40 150 0
41 -44 151 0
-41 -44 -151 0
41 44 -151 0
-41 44 151 0
45 -46 152 0
-45 -46 -152 0
45 46 -152 0
-45 46 152 0
142 -143 153 0
-142 -143 -153 0
142 143 -153 0
-142 143 153 0
144 -145 154 0
-144 -145 -154 0
144 145 -154 0
-144 145 154 0
146 -147 155 0
-146 -147 -155 0
146 147 -155 0
-146 147 155 0
148 -149 156 0
-148 -149 -156 0
148 149 -156 0
-148 149 156 0
150 -151 157 0
-150 -151 -157 0
150 151 -157 0
-150 151 157 0
152 -153 158 0
-152 -153 -158 0
152 153 -158 0
-152 153 158 0
154 -155 159 0
-154 -155 -159 0
154 155 -159 0
-154 155 159 0
156 -157 160 0
-156 -157 -160 0
156 157 -160 0
-156 157 160 0
-158 -159 160 0
158 -159 -160 0
-158 159 -160 0
158 159 160 0
-1 -3 161 0
1 -3 -161 0
-1 3 -161 0
1 3 161 0
6 -7 162 0
-6 -7 -162 0
6 7 -162 0
-6 7 162 0
8 9 163 0
-8 9 -163 0
8 -9 -163 0
-8 -9 163 0
-11 12 164 0
11 12 -164 0
-11 -12 -164 0
11 -12 164 0
16 -17 165 0
-16 -17 -165 0
16 17 -165 0
-16 17 165 0
-21 22 166 0
21 22 -166 0
-21 -22 -166 0
21 -22 166 0
-23 -24 167 0
23 -24 -167 0
-23 24 -167 0
23 24 167 0
-27 -32 168 0
27 -32 -168 0
-27 32 -168 0
27 32 168 0
-35 -36 169 0
35 -36 -169 0
-35 36 -169 0
35 36 169 0
-37 38 170 0
37 38 -170 0
-37 -38 -170 0
37 -38 170 0
39 -40 171 0
-39 -40 -171 0
39 40 -171 0
-39 40 171 0
-41 42 172 0
41 42 -172 0
-41 -42 -172 0
41 -42 172 0
44 -45 173 0
-44 -45 -173 0
44 45 -173 0
-44 45 173 0
47 48 174 0
-47 48 -174 0
47 -48 -174 0
-47 -48 174 0
161 -162 175 0
-161 -162 -175 0
161 162 -175 0
-161 162 175 0
163 -164 176 0
-163 -164 -176 0
163 164 -176 0
-163 164 176 0
165 -166 177 0
-165 -166 -177 0
165 166 -177 0
-165 166 177 0
167 -168 178 0
-167 -168 -178 0
167 168 -178 0
-167 168 178 0
169 -170 179 0
-169 -170 -179 0
169 170 -179 0
-169 170 179 0
171 -172 180 0
-171 -172 -180 0
171 172 -180 0
-171 172 180 0
173 -174 181 0
-173 -174 -181 0
173 174 -181 0
-173 174 181 0
175 -176 182 0
-175 -176 -182 0
175 176 -182 0
-175 176 182 0
177 -178 183 0
-177 -178 -183 0
177 178 -183 0
-177 178 183 0
179 -180 184 0
-179 -180 -184 0
179 180 -184 0
-179 180 184 0
181 -182 185 0
-181 -182 -185 0
181 182 -185 0
-181 182 185 0
183 -184 186 0
-183 -184 -186 0
183 184 -186 0
-183 184 186 0
185 186 0
-185 -186 0
3 5 187 0
-3 5 -187 0
3 -5 -187 0
-3 -5 187 0
6 9 188 0
-6 9 -188 0
6 -9 -188 0
-6 -9 188 0
-12 -15 189 0
12 -15 -189 0
-12 15 -189 0
12 15 189 0
-19 -21 190 0
19 -21 -190 0
-19 21 -190 0
19 21 190 0
-24 25 191 0
24 25 -191 0
-24 -25 -191 0
24 -25 191 0
26 28 192 0
-26 28 -192 0
26 -28 -192 0
-26 -28 192 0
-30 31 193 0
30 31 -193 0
-30 -31 -193 0
30 -31 193 0
32 -33 194 0
-32 -33 -194 0
32 33 -194 0
-32 33 194 0
34 35 195 0
-34 35 -195 0
34 -35 -195 0
-34 -35 195 0
36 38 196 0
-36 38 -196 0
36 -38 -196 0
-36 -38 196 0
39 -41 197 0
-39 -41 -197 0
39 41 -197 0
-39 41 197 0
42 -43 198 0
-42 -43 -198 0
42 43 -198 0
-42 43 198 0
48 -50 199 0
-48 -50 -199 0
48 50 -199 0
-48 50 199 0
187 -188 200 0
-187 -188 -200 0
187 188 -200 0
-187 188 200 0
189 -190 201 0
-189 -190 -201 0
189 190 -201 0
-189 190 201 0
191 -192 202 0
-191 -192 -202 0
191 192 -202 0
-191 192 202 0
193 -194 203 0
-193 -194 -203 0
193 194 -203 0
-193 194 203 0
195 -196 204 0
-195 -196 -204 0
195 196 -204 0
-195 196 204 0
197 -198 205 0
-197 -198 -205 0
197 198 -205 0
-197 198 205 0
199 -200 206 0
-199 -200 -206 0
199 200 -206 0
-199 200 206 0
201 -202 207 0
-201 -202 -207 0
201 202 -207 0
-201 202 207 0
203 -204 208 0
-203 -204 -208 0
203 204 -208 0
-203 204 208 0
205 -206 209 0
-205 -206 -209 0
205 206 -209 0
-205 206 209 0
207 -208 210 0
-207 -208 -210 0
207 208 -210 0
-207 208 210 0
209 210 0
-209 -210 0
2 3 211 0
-2 3 -211 0
2 -3 -211 0
-2 -3 211 0
-4 5 212 0
4 5 -212 0
-4 -5 -212 0
4 -5 212 0
7 -12 213 0
-7 -12 -213 0
7 12 -213 0
-7 12 213 0
-13 15 214 0
13 15 -214 0
-13 -15 -214 0
13 -15 214 0
16 17 215 0
-16 17 -215 0
16 -17 -215 0
-16 -17 215 0
-18 -21 216 0
18 -21 -216 0
-18 21 -216 0
18 21 216 0
-22 23 217 0
22 23 -217 0
-22 -23 -217 0
22 -23 217 0
-25 -28 218 0
25 -28 -218 0
-25 28 -218 0
25 28 218 0
-29 -31 219 0
29 -31 -219 0
-29 31 -219 0
29 31 219 0
32 33 220 0
-32 33 -220 0
32 -33 -220 0
-32 -33 220 0
36 42 221 0
-36 42 -221 0
36 -42 -221 0
-36 -42 221 0
-45 -46 222 0
45 -46 -222 0
-45 46 -222 0
45 46 222 0
47 -49 223 0
-47 -49 -223 0
47 49 -223 0
-47 49 223 0
210 -211 224 0
-210 -211 -224 0
210 211 -224 0
-210 211 224 0
212 -213 225 0
-212 -213 -225 0
212 213 -225 0
-212 213 225 0
214 -215 226 0
-214 -215 -226 0
214 215 -226 0
-214 215 226 0
216 -217 227 0
-216 -217 -227 0
216 217 -227 0
-216 217 227 0
218 -219 228 0
-218 -219 -228 0
218 219 -228 0
-218 219 228 0
220 -221 229 0
-220 -221 -229 0
220 221 -229 0
-220 221 229 0
222 -223 230 0
-222 -223 -230 0
222 223 -230 0
-222 223 230 0
224 -225 231 0
-224 -225 -231 0
224 225 -231 0
-224 225 231 0
226 -227 232 0
-226 -227 -232 0
226 227 -232 0
-226 227 232 0
228 -229 233 0
-228 -229 -233 0
228 229 -233 0
-228 229 233 0
230 -231 234 0
-230 -231 -234 0
230 231 -234 0
-230 231 234 0
232 -233 235 0
-232 -233 -235 0
232 233 -235 0
-232 233 235 0
234 235 0
-234 -235 0
1 -2 236 0
-1 -2 -236 0
1 2 -236 0
-1 2 236 0
5 -10 237 0
-5 -10 -237 0
5 10 -237 0
-5 10 237 0
-11 12 238 0
11 12 -238 0
-11 -12 -238 0
11 -12 238 0
13 14 239 0
-13 14 -239 0
13 -14 -239 0
-13 -14 239 0
16 -17 240 0
-16 -17 -240 0
16 17 -240 0
-16 17 240 0
20 22 241 0
-20 22 -241 0
20 -22 -241 0
-20 -22 241 0
-23 -24 242 0
23 -24 -242 0
-23 24 -242 0
23 24 242 0
-25 -28 243 0
25 -28 -243 0
-25 28 -243 0
25 28 243 0
29 -33 244 0
-29 -33 -244 0
29 33 -244 0
-29 33 244 0
-37 38 245 0
37 38 -245 0
-37 -38 -245 0
37 -38 245 0
-41 44 246 0
41 44 -246 0
-41 -44 -246 0
41 -44 246 0
-46 -49 247 0
46 -49 -247 0
-46 49 -247 0
46 49 247 0
236 -237 248 0
-236 -237 -248 0
236 237 -248 0
-236 237 248 0
238 -239 249 0
-238 -239 -249 0
238 239 -249 0
-238 239 249 0
240 -241 250 0
-240 -241 -250 0
240 241 -250 0
-240 241 250 0
242 -243 251 0
-242 -243 -251 0
242 243 -251 0
-242 243 251 0
244 -245 252 0
-244 -245 -252 0
244 245 -252 0
-244 245 252 0
246 -247 253 0
-246 -247 -253 0
246 247 -253 0
-246 247 253 0
248 -249 254 0
-248 -249 -254 0
248 249 -254 0
-248 249 254 0
250 -251 255 0
-250 -251 -255 0
250 251 -255 0
-250 251 255 0
252 -253 256 0
-252 -253 -256 0
252 253 -256 0
-252 253 256 0
-254 -255 256 0
254 -255 -256 0
-254 255 -256 0
254 255 256 0
-1 4 257 0
1 4 -257 0
-1 -4 -257 0
1 -4 257 0
8 11 258 0
-8 11 -258 0
8 -11 -258 0
-8 -11 258 0
-13 -15 259 0
13 -15 -259 0
-13 15 -259 0
13 15 259 0
17 -20 260 0
-17 -20 -260 0
17 20 -260 0
-17 20 260 0
21 24 261 0
-21 24 -261 0
21 -24 -261 0
-21 -24 261 0
28 29 262 0
-28 29 -262 0
28 -29 -262 0
-28 -29 262 0
31 -33 263 0
-31 -33 -263 0
31 33 -263 0
-31 33 263 0
-34 36 264 0
34 36 -264 0
-34 -36 -264 0
34 -36 264 0
37 38 265 0
-37 38 -265 0
37 -38 -265 0
-37 -38 265 0
39 41 266 0
-39 41 -266 0
39 -41 -266 0
-39 -41 266 0
43 44 267 0
-43 44 -267 0
43 -44 -267 0
-43 -44 267 0
46 47 268 0
-46 47 -268 0
46 -47 -268 0
-46 -47 268 0
48 -49 269 0
-48 -49 -269 0
48 49 -269 0
-48 49 269 0
257 -258 270 0
-257 -258 -270 0
257 258 -270 0
-257 258 270 0
259 -260 271 0
-259 -260 -271 0
259 260 -271 0
-259 260 271 0
261 -262 272 0
-261 -262 -272 0
261 262 -272 0
-261 262 272 0
263 -264 273 0
-263 -264 -273 0
263 264 -273 0
-263 264 273 0
265 -266 274 0
-265 -266 -274 0
265 266 -274 0
-265 266 274 0
267 -268 275 0
-267 -268 -275 0
267 268 -275 0
-267 268 275 0
269 -270 276 0
-269 -270 -276 0
269 270 -276 0
-269 270 276 0
271 -272 277 0
-271 -272 -277 0
271 272 -277 0
-271 272 277 0
273 -274 278 0
-273 -274 -278 0
273 274 -278 0
-273 274 278 0
275 -276 279 0
-275 -276 -279 0
275 276 -279 0
-275 276 279 0
277 -278 280 0
-277 -278 -280 0
277 278 -280 0
-277 278 280 0
279 280 0
-279 -280 0
-1 2 281 0
1 2 -281 0
-1 -2 -281 0
1 -2 281 0
-4 5 282 0
4 5 -282 0
-4 -5 -282 0
4 -5 282 0
-7 -8 283 0
7 -8 -283 0
-7 8 -283 0
7 8 283 0
-9 -11 284 0
9 -11 -284 0
-9 11 -284 0
9 11 284 0
-13 17 285 0
13 17 -285 0
-13 -17 -285 0
13 -17 285 0
21 25 286 0
-21 25 -286 0
21 -25 -286 0
-21 -25 286 0
-27 -28 287 0
27 -28 -287 0
-27 28 -287 0
27 28 287 0
29 -30 288 0
-29 -30 -288 0
29 30 -288 0
-29 30 288 0
34 36 289 0
-34 36 -289 0
34 -36 -289 0
-34 -36 289 0
-39 40 290 0
39 40 -290 0
-39 -40 -290 0
39 -40 290 0
44 45 291 0
-44 45 -291 0
44 -45 -291 0
-44 -45 291 0
280 -281 292 0
-280 -281 -292 0
280 281 -292 0
-280 281 292 0
282 -283 293 0
-282 -283 -293 0
282 283 -293 0
-282 283 293 0
284 -285 294 0
-284 -285 -294 0
284 285 -294 0
-284 285 294 0
286 -287 295 0
-286 -287 -295 0
286 287 -295 0
-286 287 295 0
288 -289 296 0
-288 -289 -296 0
288 289 -296 0
-288 289 296 0
290 -291 297 0
-290 -291 -297 0
290 291 -297 0
-290 291 297 0
292 -293 298 0
-292 -293 -298 0
292 293 -298 0
-292 293 298 0
294 -295 299 0
-294 -295 -299 0
294 295 -299 0
-294 295 299 0
296 -297 300 0
-296 -297 -300 0
296 297 -300 0
-296 297 300 0
-298 -299 300 0
298 -299 -300 0
-298 299 -300 0
298 299 300 0
2 3 301 0
-2 3 -301 0
2 -3 -301 0
-2 -3 301 0
5 7 302 0
-5 7 -302 0
5 -7 -302 0
-5 -7 302 0
9 -10 303 0
-9 -10 -303 0
9 10 -303 0
-9 10 303 0
15 -18 304 0
-15 -18 -304 0
15 18 -304 0
-15 18 304 0
21 22 305 0
-21 22 -305 0
21 -22 -305 0
-21 -22 305 0
25 -26 306 0
-25 -26 -306 0
25 26 -306 0
-25 26 306 0
27 32 307 0
-27 32 -307 0
27 -32 -307 0
-27 -32 307 0
34 36 308 0
-34 36 -308 0
34 -36 -308 0
-34 -36 308 0
-37 38 309 0
37 38 -309 0
-37 -38 -309 0
37 -38 309 0
39 42 310 0
-39 42 -310 0
39 -42 -310 0
-39 -42 310 0
45 46 311 0
-45 46 -311 0
45 -46 -311 0
-45 -46 311 0
47 48 312 0
-47 48 -312 0
47 -48 -312 0
-47 -48 312 0
300 -301 313 0
-300 -301 -313 0
300 301 -313 0
-300 301 313 0
302 -303 314 0
-302 -303 -314 0
302 303 -314 0
-302 303 314 0
304 -305 315 0
-304 -305 -315 0
304 305 -315 0
-304 305 315 0
306 -307 316 0
-306 -307 -316 0
306 307 -316 0
-306 307 316 0
308 -309 317 0
-308 -309 -317 0
308 309 -317 0
-308 309 317 0
310 -311 318 0
-310 -311 -318 0
310 311 -318 0
-310 311 318 0
312 -313 319 0
-312 -313 -319 0
312 313 -319 0
-312 313 319 0
314 -315 320 0
-314 -315 -320 0
314 315 -320 0
-314 315 320 0
316 -317 321 0
-316 -317 -321 0
316 317 -321 0
-316 317 321 0
318 -319 322 0
-318 -319 -322 0
318 319 -322 0
-318 319 322 0
320 -321 323 0
-320 -321 -323 0
320 321 -323 0
-320 321 323 0
322 323 0
-322 -323 0
-2 4 324 0
2 4 -324 0
-2 -4 -324 0
2 -4 324 0
-5 -6 325 0
5 -6 -325 0
-5 6 -325 0
5 6 325 0
-11 -12 326 0
11 -12 -326 0
-11 12 -326 0
11 12 326 0
13 15 327 0
-13 15 -327 0
13 -15 -327 0
-13 -15 327 0
16 19 328 0
-16 19 -328 0
16 -19 -328 0
-16 -19 328 0
22 -26 329 0
-22 -26 -329 0
22 26 -329 0
-22 26 329 0
28 -29 330 0
-28 -29 -330 0
28 29 -330 0
-28 29 330 0
-30 32 331 0
30 32 -331 0
-30 -32 -331 0
30 -32 331 0
-34 37 332 0
34 37 -332 0
-34 -37 -332 0
34 -37 332 0
42 43 333 0
-42 43 -333 0
42 -43 -333 0
-42 -43 333 0
46 -47 334 0
-46 -47 -334 0
46 47 -334 0
-46 47 334 0
49 -50 335 0
-49 -50 -335 0
49 50 -335 0
-49 50 335 0
324 -325 336 0
-324 -325 -336 0
324 325 -336 0
-324 325 336 0
326 -327 337 0
-326 -327 -337 0
326 327 -337 0
-326 327 337 0
328 -329 338 0
-328 -329 -338 0
328 329 -338 0
-328 329 338 0
330 -331 339 0
-330 -331 -339 0
330 331 -339 0
-330 331 339 0
332 -333 340 0
-332 -333 -340 0
332 333 -340 0
-332 333 340 0
334 -335 341 0
-334 -335 -341 0
334 335 -341 0
-334 335 341 0
336 -337 342 0
-336 -337 -342 0
336 337 -342 0
-336 337 342 0
338 -339 343 0
-338 -339 -343 0
338 339 -343 0
-338 339 343 0
340 -341 344 0
-340 -341 -344 0
340 341 -344 0
-340 341 344 0
-342 -343 344 0
342 -343 -344 0
-342 343 -344 0
342 343 344 0
1 3 345 0
-1 3 -345 0
1 -3 -345 0
-1 -3 345 0
-4 5 346 0
4 5 -346 0
-4 -5 -346 0
4 -5 346 0
-8 9 347 0
8 9 -347 0
-8 -9 -347 0
8 -9 347 0
-14 17 348 0
14 17 -348 0
-14 -17 -348 0
14 -17 348 0
-19 -20 349 0
19 -20 -349 0
-19 20 -349 0
19 20 349 0
-22 23 350 0
22 23 -350 0
-22 -23 -350 0
22 -23 350 0
-24 -25 351 0
24 -25 -351 0
-24 25 -351 0
24 25 351 0
-26 -27 352 0
26 -27 -352 0
-26 27 -352 0
26 27 352 0
28 33 353 0
-28 33 -353 0
28 -33 -353 0
-28 -33 353 0
34 -35 354 0
-34 -35 -354 0
34 35 -354 0
-34 35 354 0
37 40 355 0
-37 40 -355 0
37 -40 -355 0
-37 -40 355 0
43 -44 356 0
-43 -44 -356 0
43 44 -356 0
-43 44 356 0
-46 48 357 0
46 48 -357 0
-46 -48 -357 0
46 -48 357 0
345 -346 358 0
-345 -346 -358 0
345 346 -358 0
-345 346 358 0
347 -348 359 0
-347 -348 -359 0
347 348 -359 0
-347 348 359 0
349 -350 360 0
-349 -350 -360 0
349 350 -360 0
-349 350 360 0
351 -352 361 0
-351 -352 -361 0
351 352 -361 0
-351 352 361 0
353 -354 362 0
-353 -354 -362 0
353 354 -362 0
-353 354 362 0
355 -356 363 0
-355 -356 -363 0
355 356 -363 0
-355 356 363 0
357 -358 364 0
-357 -358 -364 0
357 358 -364 0
-357 358 364 0
359 -360 365 0
-359 -360 -365 0
359 360 -365 0
-359 360 365 0
361 -362 366 0
-361 -362 -366 0
361 362 -366 0
-361 362 366 0
363 -364 367 0
-363 -364 -367 0
363 364 -367 0
-363 364 367 0
365 -366 368 0
-365 -366 -368 0
365 366 -368 0
-365 366 368 0
367 368 0
-367 -368 0
-3 -4 369 0
3 -4 -369 0
-3 4 -369 0
3 4 369 0
-5 6 370 0
5 6 -370 0
-5 -6 -370 0
5 -6 370 0
-7 -10 371 0
7 -10 -371 0
-7 10 -371 0
7 10 371 0
11 19 372 0
-11 19 -372 0
11 -19 -372 0
-11 -19 372 0
20 -22 373 0
-20 -22 -373 0
20 22 -373 0
-20 22 373 0
23 -24 374 0
-23 -24 -374 0
23 24 -374 0
-23 24 374 0
-25 28 375 0
25 28 -375 0
-25 -28 -375 0
25 -28 375 0
30 -34 376 0
-30 -34 -376 0
30 34 -376 0
-30 34 376 0
-35 -38 377 0
35 -38 -377 0
-35 38 -377 0
35 38 377 0
39 41 378 0
-39 41 -378 0
39 -41 -378 0
-39 -41 378 0
-43 -44 379 0
43 -44 -379 0
-43 44 -379 0
43 44 379 0
46 50 380 0
-46 50 -380 0
46 -50 -380 0
-46 -50 380 0
369 -370 381 0
-369 -370 -381 0
369 370 -381 0
-369 370 381 0
371 -372 382 0
-371 -372 -382 0
371 372 -382 0
-371 372 382 0
373 -374 383 0
-373 -374 -383 0
373 374 -383 0
-373 374 383 0
375 -376 384 0
-375 -376 -384 0
375 376 -384 0
-375 376 384 0
377 -378 385 0
-377 -378 -385 0
377 378 -385 0
-377 378 385 0
379 -380 386 0
-379 -380 -386 0
379 380 -386 0
-379 380 386 0
381 -382 387 0
-381 -382 -387 0
381 382 -387 0
-381 382 387 0
383 -384 388 0
-383 -384 -388 0
383 384 -388 0
-383 384 388 0
385 -386 389 0
-385 -386 -389 0
385 386 -389 0
-385 386 389 0
-387 -388 389 0
387 -388 -389 0
-387 388 -389 0
387 388 389 0
-2 -3 390 0
2 -3 -390 0
-2 3 -390 0
2 3 390 0
-4 -6 391 0
4 -6 -391 0
-4 6 -391 0
4 6 391 0
7 -8 392 0
-7 -8 -392 0
7 8 -392 0
-7 8 392 0
11 -12 393 0
-11 -12 -393 0
11 12 -393 0
-11 12 393 0
14 18 394 0
-14 18 -394 0
14 -18 -394 0
-14 -18 394 0
-20 29 395 0
20 29 -395 0
-20 -29 -395 0
20 -29 395 0
-30 -31 396 0
30 -31 -396 0
-30 31 -396 0
30 31 396 0
-32 33 397 0
32 33 -397 0
-32 -33 -397 0
32 -33 397 0
36 37 398 0
-36 37 -398 0
36 -37 -398 0
-36 -37 398 0
-39 41 399 0
39 41 -399 0
-39 -41 -399 0
39 -41 399 0
-43 44 400 0
43 44 -400 0
-43 -44 -400 0
43 -44 400 0
-46 47 401 0
46 47 -401 0
-46 -47 -401 0
46 -47 401 0
-49 -50 402 0
49 -50 -402 0
-49 50 -402 0
49 50 402 0
390 -391 403 0
-390 -391 -403 0
390 391 -403 0
-390 391 403 0
392 -393 404 0
-392 -393 -404 0
392 393 -404 0
-392 393 404 0
394 -395 405 0
-394 -395 -405 0
394 395 -405 0
-394 395 405 0
396 -397 406 0
-396 -397 -406 0
396 397 -406 0
-396 397 406 0
398 -399 407 0
-398 -399 -407 0
398 399 -407 0
-398 399 407 0
400 -401 408 0
-400 -401 -408 0
400 401 -408 0
-400 401 408 0
402 -403 409 0
-402 -403 -409 0
402 403 -409 0
-402 403 409 0
404 -405 410 0
-404 -405 -410 0
404 405 -410 0
-404 405 410 0
406 -407 411 0
-406 -407 -411 0
406 407 -411 0
-406 407 411 0
408 -409 412 0
-408 -409 -412 0
408 409 -412 0
-408 409 412 0
410 -411 413 0
-410 -411 -413 0
410 411 -413 0
-410 411 413 0
412 413 0
-412 -413 0
-1 -2 414 0
1 -2 -414 0
-1 2 -414 0
1 2 414 0
3 -5 415 0
-3 -5 -415 0
3 5 -415 0
-3 5 415 0
6 7 416 0
-6 7 -416 0
6 -7 -416 0
-6 -7 416 0
9 -11 417 0
-9 -11 -417 0
9 11 -417 0
-9 11 417 0
-12 15 418 0
12 15 -418 0
-12 -15 -418 0
12 -15 418 0
-16 -26 419 0
16 -26 -419 0
-16 26 -419 0
16 26 419 0
29 30 420 0
-29 30 -420 0
29 -30 -420 0
-29 -30 420 0
-37 39 421 0
37 39 -421 0
-37 -39 -421 0
37 -39 421 0
47 -48 422 0
-47 -48 -422 0
47 48 -422 0
-47 48 422 0
413 -414 423 0
-413 -414 -423 0
413 414 -423 0
-413 414 423 0
415 -416 424 0
-415 -416 -424 0
415 416 -424 0
-415 416 424 0
417 -418 425 0
-417 -418 -425 0
417 418 -425 0
-417 418 425 0
419 -420 426 0
-419 -420 -426 0
419 420 -426 0
-419 420 426 0
421 -422 427 0
-421 -422 -427 0
421 422 -427 0
-421 422 427 0
423 -424 428 0
-423 -424 -428 0
423 424 -428 0
-423 424 428 0
425 -426 429 0
-425 -426 -429 0
425 426 -429 0
-425 426 429 0
-427 -428 429 0
427 -428 -429 0
-427 428 -429 0
427 428 429 0
4 6 430 0
-4 6 -430 0
4 -6 -430 0
-4 -6 430 0
-9 -10 431 0
9 -10 -431 0
-9 10 -431 0
9 10 431 0
-11 -16 432 0
11 -16 -432 0
-11 16 -432 0
11 16 432 0
-17 -18 433 0
17 -18 -433 0
-17 18 -433 0
17 18 433 0
-25 -27 434 0
25 -27 -434 0
-25 27 -434 0
25 27 434 0
-28 29 435 0
28 29 -435 0
-28 -29 -435 0
28 -29 435 0
31 -32 436 0
-31 -32 -436 0
31 32 -436 0
-31 32 436 0
-35 36 437 0
35 36 -437 0
-35 -36 -437 0
35 -36 437 0
-37 -38 438 0
37 -38 -438 0
-37 38 -438 0
37 38 438 0
-41 43 439 0
41 43 -439 0
-41 -43 -439 0
41 -43 439 0
-44 46 440 0
44 46 -440 0
-44 -46 -440 0
44 -46 440 0
-47 48 441 0
47 48 -441 0
-47 -48 -441 0
47 -48 441 0
430 -431 442 0
-430 -431 -442 0
430 431 -442 0
-430 431 442 0
432 -433 443 0
-432 -433 -443 0
432 433 -443 0
-432 433 443 0
434 -435 444 0
-434 -435 -444 0
434 435 -444 0
-434 435 444 0
436 -437 445 0
-436 -437 -445 0
436 437 -445 0
-436 437 445 0
438 -439 446 0
-438 -439 -446 0
438 439 -446 0
-438 439 446 0
440 -441 447 0
-440 -441 -447 0
440 441 -447 0
-440 441 447 0
442 -443 448 0
-442 -443 -448 0
442 443 -448 0
-442 443 448 0
444 -445 449 0
-444 -445 -449 0
444 445 -449 0
-444 445 449 0
446 -447 450 0
-446 -447 -450 0
446 447 -450 0
-446 447 450 0
-448 -449 450 0
448 -449 -450 0
-448 449 -450 0
448 449 450 0
-1 4 451 0
1 4 -451 0
-1 -4 -451 0
1 -4 451 0
6 8 452 0
-6 8 -452 0
6 -8 -452 0
-6 -8 452 0
10 -11 453 0
-10 -11 -453 0
10 11 -453 0
-10 11 453 0
16 17 454 0
-16 17 -454 0
16 -17 -454 0
-16 -17 454 0
-18 19 455 0
18 19 -455 0
-18 -19 -455 0
18 -19 455 0
20 -23 456 0
-20 -23 -456 0
20 23 -456 0
-20 23 456 0
-24 27 457 0
24 27 -457 0
-24 -27 -457 0
24 -27 457 0
-28 33 458 0
28 33 -458 0
-28 -33 -458 0
28 -33 458 0
-35 -36 459 0
35 -36 -459 0
-35 36 -459 0
35 36 459 0
40 -42 460 0
-40 -42 -460 0
40 42 -460 0
-40 42 460 0
43 -47 461 0
-43 -47 -461 0
43 47 -461 0
-43 47 461 0
-48 -50 462 0
48 -50 -462 0
-48 50 -462 0
48 50 462 0
451 -452 463 0
-451 -452 -463 0
451 452 -463 0
-451 452 463 0
453 -454 464 0
-453 -454 -464 0
453 454 -464 0
-453 454 464 0
455 -456 465 0
-455 -456 -465 0
455 456 -465 0
-455 456 465 0
457 -458 466 0
-457 -458 -466 0
457 458 -466 0
-457 458 466 0
459 -460 467 0
-459 -460 -467 0
459 460 -467 0
-459 460 467 0
461 -462 468 0
-461 -462 -468 0
461 462 -468 0
-461 462 468 0
463 -464 469 0
-463 -464 -469 0
463 464 -469 0
-463 464 469 0
465 -466 470 0
-465 -466 -470 0
465 466 -470 0
-465 466 470 0
467 -468 471 0
-467 -468 -471 0
467 468 -471 0
-467 468 471 0
-469 -470 471 0
469 -470 -471 0
-469 470 -471 0
469 470 471 0
-2 -7 472 0
2 -7 -472 0
-2 7 -472 0
2 7 472 0
-8 -10 473 0
8 -10 -473 0
-8 10 -473 0
8 10 473 0
-11 12 474 0
11 12 -474 0
-11 -12 -474 0
11 -12 474 0
13 14 475 0
-13 14 -475 0
13 -14 -475 0
-13 -14 475 0
-16 20 476 0
16 20 -476 0
-16 -20 -476 0
16 -20 476 0
21 22 477 0
-21 22 -477 0
21 -22 -477 0
-21 -22 477 0
-25 26 478 0
25 26 -478 0
-25 -26 -478 0
25 -26 478 0
27 -30 479 0
-27 -30 -479 0
27 30 -479 0
-27 30 479 0
31 -34 480 0
-31 -34 -480 0
31 34 -480 0
-31 34 480 0
37 -38 481 0
-37 -38 -481 0
37 38 -481 0
-37 38 481 0
39 41 482 0
-39 41 -482 0
39 -41 -482 0
-39 -41 482 0
-46 -47 483 0
46 -47 -483 0
-46 47 -483 0
46 47 483 0
471 -472 484 0
-471 -472 -484 0
471 472 -484 0
-471 472 484 0
473 -474 485 0
-473 -474 -485 0
473 474 -485 0
-473 474 485 0
475 -476 486 0
-475 -476 -486 0
475 476 -486 0
-475 476 486 0
477 -478 487 0
-477 -478 -487 0
477 478 -487 0
-477 478 487 0
479 -480 488 0
-479 -480 -488 0
479 480 -488 0
-479 480 488 0
481 -482 489 0
-481 -482 -489 0
481 482 -489 0
-481 482 489 0
483 -484 490 0
-483 -484 -490 0
483 484 -490 0
-483 484 490 0
485 -486 491 0
-485 -486 -491 0
485 486 -491 0
-485 486 491 0
487 -488 492 0
-487 -488 -492 0
487 488 -492 0
-487 488 492 0
489 -490 493 0
-489 -490 -493 0
489 490 -493 0
-489 490 493 0
491 -492 494 0
-491 -492 -494 0
491 492 -494 0
-491 492 494 0
493 494 0
-493 -494 0
